c "random instance"
p edges 150 4531
e 1 5
e 1 6
e 1 7
e 1 9
e 1 10
e 1 13
e 1 17
e 1 19
e 1 20
e 1 22
e 1 26
e 1 27
e 1 29
e 1 34
e 1 37
e 1 41
e 1 45
e 1 46
e 1 50
e 1 51
e 1 55
e 1 57
e 1 59
e 1 61
e 1 67
e 1 73
e 1 75
e 1 76
e 1 78
e 1 80
e 1 83
e 1 85
e 1 86
e 1 87
e 1 88
e 1 89
e 1 90
e 1 94
e 1 95
e 1 101
e 1 104
e 1 107
e 1 108
e 1 111
e 1 115
e 1 116
e 1 117
e 1 119
e 1 120
e 1 122
e 1 124
e 1 125
e 1 126
e 1 129
e 1 130
e 1 132
e 1 133
e 1 135
e 1 136
e 1 138
e 1 145
e 1 148
e 1 149
e 2 3
e 2 6
e 2 7
e 2 8
e 2 10
e 2 14
e 2 16
e 2 23
e 2 24
e 2 26
e 2 28
e 2 29
e 2 33
e 2 34
e 2 35
e 2 37
e 2 39
e 2 40
e 2 41
e 2 42
e 2 43
e 2 46
e 2 49
e 2 52
e 2 53
e 2 57
e 2 59
e 2 68
e 2 70
e 2 73
e 2 77
e 2 78
e 2 79
e 2 81
e 2 84
e 2 86
e 2 87
e 2 90
e 2 92
e 2 93
e 2 101
e 2 102
e 2 113
e 2 120
e 2 122
e 2 123
e 2 125
e 2 128
e 2 129
e 2 139
e 2 141
e 2 143
e 2 146
e 2 149
e 3 11
e 3 12
e 3 15
e 3 17
e 3 18
e 3 19
e 3 25
e 3 30
e 3 31
e 3 45
e 3 46
e 3 48
e 3 49
e 3 50
e 3 54
e 3 56
e 3 57
e 3 58
e 3 60
e 3 63
e 3 68
e 3 70
e 3 71
e 3 72
e 3 74
e 3 79
e 3 80
e 3 81
e 3 83
e 3 88
e 3 92
e 3 93
e 3 94
e 3 99
e 3 100
e 3 101
e 3 102
e 3 106
e 3 107
e 3 110
e 3 111
e 3 115
e 3 116
e 3 117
e 3 119
e 3 121
e 3 124
e 3 125
e 3 126
e 3 128
e 3 129
e 3 131
e 3 132
e 3 133
e 3 135
e 3 136
e 3 137
e 3 139
e 3 140
e 3 142
e 3 144
e 3 146
e 3 148
e 3 149
e 4 6
e 4 8
e 4 13
e 4 22
e 4 26
e 4 29
e 4 30
e 4 31
e 4 32
e 4 33
e 4 34
e 4 37
e 4 43
e 4 49
e 4 55
e 4 59
e 4 61
e 4 64
e 4 66
e 4 67
e 4 68
e 4 70
e 4 72
e 4 76
e 4 77
e 4 86
e 4 90
e 4 91
e 4 93
e 4 94
e 4 96
e 4 106
e 4 109
e 4 110
e 4 113
e 4 115
e 4 118
e 4 119
e 4 120
e 4 124
e 4 125
e 4 138
e 4 141
e 4 142
e 4 144
e 4 146
e 4 147
e 4 148
e 4 150
e 5 6
e 5 7
e 5 8
e 5 14
e 5 15
e 5 16
e 5 17
e 5 18
e 5 26
e 5 27
e 5 30
e 5 31
e 5 32
e 5 34
e 5 37
e 5 38
e 5 41
e 5 42
e 5 44
e 5 47
e 5 48
e 5 49
e 5 50
e 5 51
e 5 54
e 5 55
e 5 56
e 5 59
e 5 60
e 5 61
e 5 63
e 5 64
e 5 66
e 5 67
e 5 69
e 5 70
e 5 72
e 5 75
e 5 76
e 5 80
e 5 81
e 5 82
e 5 84
e 5 86
e 5 87
e 5 91
e 5 92
e 5 97
e 5 102
e 5 106
e 5 108
e 5 109
e 5 111
e 5 114
e 5 118
e 5 119
e 5 120
e 5 121
e 5 122
e 5 125
e 5 136
e 5 137
e 5 139
e 5 141
e 5 144
e 6 7
e 6 8
e 6 10
e 6 12
e 6 14
e 6 16
e 6 18
e 6 21
e 6 24
e 6 26
e 6 27
e 6 28
e 6 30
e 6 31
e 6 35
e 6 39
e 6 40
e 6 41
e 6 43
e 6 46
e 6 54
e 6 56
e 6 57
e 6 60
e 6 62
e 6 63
e 6 66
e 6 70
e 6 73
e 6 78
e 6 79
e 6 87
e 6 91
e 6 92
e 6 93
e 6 97
e 6 99
e 6 100
e 6 103
e 6 107
e 6 109
e 6 114
e 6 115
e 6 129
e 6 130
e 6 131
e 6 132
e 6 139
e 6 140
e 6 145
e 6 150
e 7 9
e 7 12
e 7 22
e 7 24
e 7 26
e 7 38
e 7 42
e 7 44
e 7 47
e 7 52
e 7 55
e 7 56
e 7 58
e 7 59
e 7 60
e 7 61
e 7 66
e 7 72
e 7 73
e 7 75
e 7 78
e 7 79
e 7 80
e 7 82
e 7 84
e 7 86
e 7 88
e 7 89
e 7 90
e 7 91
e 7 96
e 7 97
e 7 98
e 7 99
e 7 102
e 7 105
e 7 114
e 7 115
e 7 116
e 7 117
e 7 118
e 7 119
e 7 121
e 7 124
e 7 125
e 7 128
e 7 129
e 7 134
e 7 135
e 7 138
e 7 140
e 7 144
e 7 145
e 7 146
e 7 147
e 7 148
e 8 9
e 8 10
e 8 16
e 8 25
e 8 27
e 8 35
e 8 38
e 8 44
e 8 47
e 8 48
e 8 49
e 8 50
e 8 51
e 8 52
e 8 54
e 8 57
e 8 63
e 8 64
e 8 67
e 8 68
e 8 69
e 8 70
e 8 72
e 8 74
e 8 76
e 8 79
e 8 80
e 8 84
e 8 86
e 8 93
e 8 94
e 8 95
e 8 96
e 8 98
e 8 99
e 8 101
e 8 105
e 8 108
e 8 111
e 8 112
e 8 116
e 8 120
e 8 121
e 8 130
e 8 138
e 8 143
e 8 145
e 9 10
e 9 11
e 9 13
e 9 15
e 9 17
e 9 21
e 9 22
e 9 29
e 9 37
e 9 38
e 9 40
e 9 41
e 9 42
e 9 43
e 9 44
e 9 46
e 9 49
e 9 50
e 9 51
e 9 52
e 9 53
e 9 58
e 9 64
e 9 65
e 9 67
e 9 71
e 9 84
e 9 85
e 9 89
e 9 91
e 9 92
e 9 94
e 9 97
e 9 98
e 9 99
e 9 100
e 9 102
e 9 109
e 9 112
e 9 115
e 9 122
e 9 127
e 9 129
e 9 130
e 9 136
e 9 137
e 9 139
e 9 140
e 9 141
e 9 142
e 9 143
e 9 148
e 10 13
e 10 16
e 10 18
e 10 19
e 10 21
e 10 26
e 10 34
e 10 38
e 10 41
e 10 43
e 10 47
e 10 48
e 10 52
e 10 56
e 10 60
e 10 67
e 10 69
e 10 72
e 10 76
e 10 79
e 10 80
e 10 84
e 10 85
e 10 86
e 10 89
e 10 90
e 10 94
e 10 99
e 10 100
e 10 102
e 10 103
e 10 106
e 10 108
e 10 110
e 10 111
e 10 119
e 10 120
e 10 123
e 10 127
e 10 128
e 10 129
e 10 130
e 10 133
e 10 134
e 10 135
e 10 136
e 10 141
e 10 142
e 10 143
e 11 13
e 11 18
e 11 19
e 11 23
e 11 26
e 11 30
e 11 33
e 11 36
e 11 40
e 11 42
e 11 43
e 11 46
e 11 47
e 11 48
e 11 53
e 11 55
e 11 56
e 11 57
e 11 58
e 11 59
e 11 65
e 11 66
e 11 70
e 11 72
e 11 74
e 11 80
e 11 81
e 11 82
e 11 87
e 11 90
e 11 91
e 11 95
e 11 97
e 11 100
e 11 101
e 11 102
e 11 104
e 11 106
e 11 107
e 11 118
e 11 119
e 11 121
e 11 122
e 11 123
e 11 125
e 11 131
e 11 135
e 11 139
e 11 140
e 11 141
e 11 145
e 11 146
e 11 147
e 11 150
e 12 15
e 12 17
e 12 18
e 12 19
e 12 22
e 12 23
e 12 26
e 12 27
e 12 29
e 12 35
e 12 36
e 12 40
e 12 46
e 12 47
e 12 52
e 12 53
e 12 61
e 12 65
e 12 66
e 12 67
e 12 68
e 12 69
e 12 70
e 12 72
e 12 73
e 12 75
e 12 77
e 12 79
e 12 81
e 12 84
e 12 85
e 12 86
e 12 87
e 12 88
e 12 90
e 12 92
e 12 93
e 12 96
e 12 98
e 12 101
e 12 107
e 12 108
e 12 111
e 12 113
e 12 118
e 12 119
e 12 121
e 12 123
e 12 124
e 12 125
e 12 127
e 12 128
e 12 129
e 12 130
e 12 131
e 12 133
e 12 134
e 12 139
e 12 141
e 12 143
e 12 150
e 13 21
e 13 25
e 13 27
e 13 28
e 13 29
e 13 30
e 13 33
e 13 36
e 13 37
e 13 39
e 13 40
e 13 45
e 13 46
e 13 49
e 13 52
e 13 55
e 13 56
e 13 57
e 13 60
e 13 62
e 13 63
e 13 64
e 13 65
e 13 66
e 13 67
e 13 74
e 13 75
e 13 76
e 13 77
e 13 78
e 13 79
e 13 81
e 13 88
e 13 91
e 13 96
e 13 107
e 13 110
e 13 112
e 13 113
e 13 114
e 13 115
e 13 117
e 13 120
e 13 121
e 13 122
e 13 123
e 13 124
e 13 126
e 13 127
e 13 130
e 13 133
e 13 135
e 13 136
e 13 140
e 13 143
e 13 144
e 13 145
e 13 147
e 13 149
e 13 150
e 14 16
e 14 22
e 14 24
e 14 25
e 14 28
e 14 29
e 14 30
e 14 32
e 14 33
e 14 36
e 14 37
e 14 38
e 14 39
e 14 41
e 14 42
e 14 45
e 14 48
e 14 49
e 14 50
e 14 51
e 14 65
e 14 67
e 14 70
e 14 72
e 14 73
e 14 74
e 14 75
e 14 76
e 14 77
e 14 78
e 14 82
e 14 84
e 14 86
e 14 87
e 14 92
e 14 96
e 14 99
e 14 100
e 14 101
e 14 103
e 14 107
e 14 108
e 14 113
e 14 116
e 14 118
e 14 119
e 14 121
e 14 123
e 14 127
e 14 134
e 14 136
e 14 138
e 14 139
e 14 145
e 14 149
e 14 150
e 15 16
e 15 20
e 15 24
e 15 26
e 15 28
e 15 32
e 15 33
e 15 39
e 15 40
e 15 41
e 15 42
e 15 49
e 15 53
e 15 55
e 15 59
e 15 63
e 15 66
e 15 68
e 15 70
e 15 71
e 15 72
e 15 76
e 15 77
e 15 83
e 15 84
e 15 91
e 15 98
e 15 99
e 15 100
e 15 102
e 15 103
e 15 104
e 15 105
e 15 111
e 15 116
e 15 117
e 15 119
e 15 120
e 15 122
e 15 123
e 15 124
e 15 125
e 15 129
e 15 130
e 15 131
e 15 133
e 15 134
e 15 135
e 15 137
e 15 138
e 15 146
e 15 148
e 16 17
e 16 18
e 16 19
e 16 20
e 16 21
e 16 23
e 16 24
e 16 25
e 16 27
e 16 29
e 16 33
e 16 34
e 16 37
e 16 40
e 16 41
e 16 45
e 16 51
e 16 55
e 16 59
e 16 65
e 16 66
e 16 68
e 16 71
e 16 77
e 16 79
e 16 80
e 16 81
e 16 83
e 16 86
e 16 87
e 16 92
e 16 94
e 16 101
e 16 104
e 16 107
e 16 109
e 16 114
e 16 115
e 16 117
e 16 118
e 16 119
e 16 122
e 16 123
e 16 124
e 16 125
e 16 131
e 16 136
e 16 137
e 16 138
e 16 140
e 16 146
e 17 18
e 17 19
e 17 21
e 17 22
e 17 27
e 17 29
e 17 30
e 17 33
e 17 34
e 17 37
e 17 38
e 17 40
e 17 42
e 17 47
e 17 52
e 17 55
e 17 57
e 17 59
e 17 61
e 17 62
e 17 63
e 17 65
e 17 67
e 17 72
e 17 75
e 17 84
e 17 95
e 17 102
e 17 103
e 17 104
e 17 108
e 17 115
e 17 117
e 17 118
e 17 119
e 17 121
e 17 122
e 17 123
e 17 124
e 17 126
e 17 127
e 17 130
e 17 132
e 17 136
e 17 141
e 17 144
e 17 145
e 17 148
e 17 150
e 18 26
e 18 27
e 18 30
e 18 34
e 18 35
e 18 36
e 18 40
e 18 41
e 18 44
e 18 47
e 18 50
e 18 53
e 18 57
e 18 58
e 18 59
e 18 60
e 18 62
e 18 65
e 18 70
e 18 76
e 18 77
e 18 78
e 18 81
e 18 85
e 18 86
e 18 87
e 18 92
e 18 94
e 18 95
e 18 96
e 18 97
e 18 99
e 18 104
e 18 106
e 18 107
e 18 108
e 18 109
e 18 111
e 18 113
e 18 114
e 18 117
e 18 120
e 18 121
e 18 122
e 18 127
e 18 128
e 18 129
e 18 130
e 18 132
e 18 135
e 18 136
e 18 137
e 18 140
e 18 142
e 18 146
e 18 148
e 19 21
e 19 22
e 19 26
e 19 29
e 19 31
e 19 37
e 19 46
e 19 51
e 19 53
e 19 61
e 19 62
e 19 64
e 19 67
e 19 69
e 19 70
e 19 72
e 19 74
e 19 75
e 19 76
e 19 79
e 19 86
e 19 88
e 19 89
e 19 91
e 19 92
e 19 94
e 19 97
e 19 98
e 19 99
e 19 100
e 19 105
e 19 106
e 19 107
e 19 109
e 19 111
e 19 125
e 19 126
e 19 131
e 19 145
e 19 148
e 19 149
e 20 21
e 20 24
e 20 26
e 20 28
e 20 30
e 20 32
e 20 34
e 20 36
e 20 38
e 20 39
e 20 40
e 20 44
e 20 46
e 20 53
e 20 57
e 20 58
e 20 64
e 20 70
e 20 71
e 20 72
e 20 73
e 20 76
e 20 88
e 20 90
e 20 92
e 20 94
e 20 95
e 20 96
e 20 99
e 20 102
e 20 104
e 20 105
e 20 107
e 20 109
e 20 110
e 20 118
e 20 121
e 20 122
e 20 126
e 20 127
e 20 128
e 20 129
e 20 131
e 20 132
e 20 134
e 20 135
e 20 137
e 20 138
e 20 149
e 21 22
e 21 30
e 21 34
e 21 35
e 21 36
e 21 39
e 21 47
e 21 49
e 21 50
e 21 53
e 21 57
e 21 58
e 21 60
e 21 62
e 21 63
e 21 64
e 21 67
e 21 68
e 21 75
e 21 77
e 21 79
e 21 80
e 21 81
e 21 82
e 21 84
e 21 86
e 21 89
e 21 90
e 21 92
e 21 94
e 21 96
e 21 97
e 21 100
e 21 102
e 21 105
e 21 107
e 21 109
e 21 120
e 21 122
e 21 125
e 21 126
e 21 129
e 21 130
e 21 132
e 21 133
e 21 135
e 21 136
e 21 139
e 21 140
e 21 148
e 22 25
e 22 26
e 22 27
e 22 28
e 22 31
e 22 32
e 22 33
e 22 35
e 22 39
e 22 40
e 22 42
e 22 43
e 22 48
e 22 49
e 22 52
e 22 56
e 22 57
e 22 62
e 22 68
e 22 72
e 22 74
e 22 75
e 22 77
e 22 78
e 22 79
e 22 80
e 22 82
e 22 84
e 22 88
e 22 90
e 22 94
e 22 95
e 22 96
e 22 99
e 22 100
e 22 105
e 22 106
e 22 107
e 22 112
e 22 114
e 22 116
e 22 117
e 22 119
e 22 121
e 22 122
e 22 131
e 22 136
e 22 138
e 22 143
e 22 145
e 22 147
e 22 148
e 22 150
e 23 25
e 23 28
e 23 31
e 23 32
e 23 33
e 23 34
e 23 36
e 23 39
e 23 41
e 23 42
e 23 43
e 23 46
e 23 47
e 23 48
e 23 49
e 23 50
e 23 59
e 23 64
e 23 66
e 23 67
e 23 72
e 23 75
e 23 76
e 23 81
e 23 84
e 23 86
e 23 88
e 23 89
e 23 97
e 23 99
e 23 100
e 23 105
e 23 106
e 23 107
e 23 108
e 23 109
e 23 112
e 23 113
e 23 117
e 23 118
e 23 119
e 23 121
e 23 122
e 23 130
e 23 131
e 23 132
e 23 133
e 23 138
e 23 139
e 23 140
e 23 141
e 23 143
e 23 144
e 23 146
e 23 147
e 23 150
e 24 26
e 24 31
e 24 37
e 24 40
e 24 42
e 24 43
e 24 45
e 24 46
e 24 47
e 24 50
e 24 51
e 24 54
e 24 59
e 24 60
e 24 62
e 24 63
e 24 65
e 24 66
e 24 70
e 24 71
e 24 72
e 24 74
e 24 75
e 24 78
e 24 79
e 24 80
e 24 82
e 24 84
e 24 86
e 24 87
e 24 94
e 24 95
e 24 98
e 24 100
e 24 101
e 24 102
e 24 103
e 24 104
e 24 109
e 24 112
e 24 113
e 24 119
e 24 120
e 24 121
e 24 123
e 24 124
e 24 125
e 24 127
e 24 130
e 24 133
e 24 138
e 24 139
e 24 140
e 24 144
e 24 145
e 24 147
e 25 27
e 25 30
e 25 31
e 25 32
e 25 35
e 25 36
e 25 39
e 25 41
e 25 46
e 25 48
e 25 49
e 25 50
e 25 52
e 25 56
e 25 62
e 25 63
e 25 64
e 25 67
e 25 71
e 25 72
e 25 73
e 25 74
e 25 76
e 25 77
e 25 78
e 25 85
e 25 87
e 25 90
e 25 91
e 25 95
e 25 101
e 25 102
e 25 103
e 25 105
e 25 106
e 25 108
e 25 109
e 25 111
e 25 112
e 25 114
e 25 115
e 25 116
e 25 118
e 25 119
e 25 121
e 25 127
e 25 128
e 25 131
e 25 132
e 25 134
e 25 136
e 25 139
e 25 140
e 25 141
e 25 142
e 25 143
e 25 145
e 25 147
e 25 150
e 26 27
e 26 32
e 26 33
e 26 35
e 26 37
e 26 38
e 26 53
e 26 56
e 26 57
e 26 60
e 26 61
e 26 63
e 26 66
e 26 67
e 26 68
e 26 69
e 26 70
e 26 72
e 26 76
e 26 78
e 26 83
e 26 85
e 26 90
e 26 92
e 26 94
e 26 97
e 26 98
e 26 100
e 26 103
e 26 104
e 26 105
e 26 106
e 26 108
e 26 109
e 26 110
e 26 111
e 26 113
e 26 119
e 26 121
e 26 124
e 26 126
e 26 127
e 26 128
e 26 130
e 26 132
e 26 133
e 26 142
e 26 149
e 27 30
e 27 33
e 27 34
e 27 35
e 27 38
e 27 39
e 27 41
e 27 51
e 27 54
e 27 56
e 27 58
e 27 61
e 27 62
e 27 63
e 27 67
e 27 71
e 27 72
e 27 75
e 27 76
e 27 79
e 27 80
e 27 81
e 27 87
e 27 89
e 27 90
e 27 91
e 27 94
e 27 96
e 27 100
e 27 101
e 27 103
e 27 107
e 27 109
e 27 110
e 27 113
e 27 114
e 27 116
e 27 119
e 27 122
e 27 124
e 27 128
e 27 130
e 27 131
e 27 132
e 27 133
e 27 134
e 27 140
e 27 145
e 27 147
e 27 148
e 27 149
e 28 30
e 28 31
e 28 34
e 28 35
e 28 37
e 28 40
e 28 41
e 28 43
e 28 45
e 28 48
e 28 49
e 28 51
e 28 52
e 28 53
e 28 54
e 28 57
e 28 58
e 28 60
e 28 61
e 28 64
e 28 71
e 28 75
e 28 80
e 28 81
e 28 82
e 28 83
e 28 86
e 28 87
e 28 92
e 28 94
e 28 96
e 28 97
e 28 99
e 28 101
e 28 102
e 28 103
e 28 104
e 28 108
e 28 109
e 28 110
e 28 111
e 28 112
e 28 115
e 28 116
e 28 118
e 28 119
e 28 120
e 28 121
e 28 125
e 28 130
e 28 131
e 28 132
e 28 134
e 28 135
e 28 136
e 28 139
e 28 142
e 28 143
e 28 144
e 28 146
e 28 147
e 28 149
e 29 31
e 29 33
e 29 36
e 29 39
e 29 42
e 29 43
e 29 44
e 29 48
e 29 49
e 29 54
e 29 56
e 29 57
e 29 59
e 29 60
e 29 62
e 29 63
e 29 64
e 29 67
e 29 71
e 29 78
e 29 79
e 29 81
e 29 82
e 29 83
e 29 84
e 29 86
e 29 89
e 29 91
e 29 96
e 29 100
e 29 101
e 29 103
e 29 104
e 29 105
e 29 108
e 29 110
e 29 112
e 29 114
e 29 115
e 29 116
e 29 118
e 29 120
e 29 125
e 29 126
e 29 127
e 29 132
e 29 133
e 29 134
e 29 137
e 29 141
e 29 144
e 29 146
e 29 147
e 29 148
e 29 150
e 30 32
e 30 34
e 30 36
e 30 38
e 30 44
e 30 45
e 30 46
e 30 49
e 30 50
e 30 51
e 30 52
e 30 53
e 30 54
e 30 58
e 30 63
e 30 68
e 30 70
e 30 72
e 30 76
e 30 77
e 30 78
e 30 81
e 30 84
e 30 86
e 30 88
e 30 90
e 30 93
e 30 96
e 30 100
e 30 101
e 30 102
e 30 105
e 30 106
e 30 108
e 30 109
e 30 111
e 30 115
e 30 116
e 30 117
e 30 118
e 30 119
e 30 122
e 30 123
e 30 126
e 30 129
e 30 131
e 30 132
e 30 134
e 30 135
e 30 136
e 30 137
e 30 142
e 30 143
e 30 145
e 30 149
e 31 35
e 31 37
e 31 38
e 31 39
e 31 41
e 31 42
e 31 44
e 31 52
e 31 55
e 31 56
e 31 58
e 31 60
e 31 63
e 31 68
e 31 74
e 31 75
e 31 76
e 31 81
e 31 84
e 31 86
e 31 89
e 31 92
e 31 94
e 31 96
e 31 98
e 31 101
e 31 108
e 31 112
e 31 113
e 31 116
e 31 118
e 31 119
e 31 121
e 31 126
e 31 128
e 31 131
e 31 133
e 31 138
e 31 139
e 31 144
e 31 145
e 31 146
e 31 148
e 32 35
e 32 37
e 32 38
e 32 39
e 32 41
e 32 43
e 32 46
e 32 48
e 32 49
e 32 57
e 32 60
e 32 61
e 32 63
e 32 69
e 32 73
e 32 75
e 32 76
e 32 78
e 32 79
e 32 85
e 32 86
e 32 87
e 32 88
e 32 91
e 32 92
e 32 96
e 32 100
e 32 101
e 32 102
e 32 103
e 32 105
e 32 106
e 32 107
e 32 109
e 32 110
e 32 111
e 32 114
e 32 119
e 32 126
e 32 129
e 32 130
e 32 131
e 32 132
e 32 133
e 32 137
e 32 139
e 32 140
e 32 141
e 32 143
e 32 146
e 32 148
e 32 149
e 33 34
e 33 38
e 33 41
e 33 44
e 33 47
e 33 49
e 33 50
e 33 53
e 33 58
e 33 62
e 33 67
e 33 68
e 33 69
e 33 71
e 33 72
e 33 73
e 33 74
e 33 75
e 33 78
e 33 86
e 33 90
e 33 92
e 33 94
e 33 95
e 33 105
e 33 107
e 33 109
e 33 110
e 33 112
e 33 113
e 33 117
e 33 123
e 33 124
e 33 132
e 33 135
e 33 137
e 33 140
e 33 145
e 33 147
e 33 149
e 34 35
e 34 36
e 34 45
e 34 46
e 34 50
e 34 56
e 34 58
e 34 61
e 34 62
e 34 66
e 34 67
e 34 69
e 34 72
e 34 75
e 34 83
e 34 84
e 34 86
e 34 87
e 34 91
e 34 94
e 34 96
e 34 99
e 34 102
e 34 108
e 34 113
e 34 118
e 34 121
e 34 122
e 34 124
e 34 125
e 34 130
e 34 131
e 34 136
e 34 140
e 34 150
e 35 36
e 35 41
e 35 43
e 35 44
e 35 45
e 35 46
e 35 48
e 35 50
e 35 51
e 35 52
e 35 53
e 35 57
e 35 58
e 35 60
e 35 61
e 35 66
e 35 71
e 35 73
e 35 75
e 35 79
e 35 83
e 35 84
e 35 87
e 35 88
e 35 91
e 35 92
e 35 93
e 35 99
e 35 103
e 35 110
e 35 112
e 35 115
e 35 116
e 35 118
e 35 121
e 35 127
e 35 128
e 35 129
e 35 130
e 35 132
e 35 135
e 35 136
e 35 139
e 35 140
e 35 141
e 35 147
e 35 150
e 36 38
e 36 41
e 36 42
e 36 43
e 36 44
e 36 45
e 36 46
e 36 47
e 36 51
e 36 52
e 36 56
e 36 57
e 36 59
e 36 60
e 36 65
e 36 67
e 36 68
e 36 69
e 36 75
e 36 78
e 36 82
e 36 86
e 36 87
e 36 88
e 36 90
e 36 94
e 36 99
e 36 101
e 36 102
e 36 106
e 36 111
e 36 120
e 36 122
e 36 123
e 36 126
e 36 128
e 36 131
e 36 132
e 36 136
e 36 142
e 36 146
e 36 148
e 36 149
e 37 38
e 37 39
e 37 41
e 37 42
e 37 43
e 37 46
e 37 48
e 37 50
e 37 53
e 37 57
e 37 58
e 37 60
e 37 61
e 37 64
e 37 65
e 37 71
e 37 72
e 37 73
e 37 75
e 37 79
e 37 80
e 37 81
e 37 85
e 37 87
e 37 88
e 37 90
e 37 92
e 37 96
e 37 98
e 37 99
e 37 100
e 37 102
e 37 104
e 37 109
e 37 111
e 37 114
e 37 115
e 37 116
e 37 119
e 37 120
e 37 122
e 37 125
e 37 127
e 37 128
e 37 130
e 37 131
e 37 134
e 37 135
e 37 137
e 37 138
e 37 139
e 37 142
e 37 145
e 37 146
e 37 147
e 37 149
e 38 46
e 38 47
e 38 49
e 38 51
e 38 52
e 38 53
e 38 55
e 38 56
e 38 57
e 38 60
e 38 65
e 38 68
e 38 70
e 38 74
e 38 76
e 38 78
e 38 79
e 38 80
e 38 81
e 38 86
e 38 88
e 38 89
e 38 93
e 38 98
e 38 100
e 38 101
e 38 103
e 38 104
e 38 107
e 38 108
e 38 110
e 38 113
e 38 114
e 38 117
e 38 118
e 38 119
e 38 122
e 38 124
e 38 127
e 38 128
e 38 129
e 38 131
e 38 136
e 38 137
e 38 139
e 38 145
e 38 147
e 38 150
e 39 43
e 39 46
e 39 47
e 39 49
e 39 50
e 39 51
e 39 56
e 39 57
e 39 59
e 39 68
e 39 71
e 39 72
e 39 73
e 39 75
e 39 77
e 39 82
e 39 84
e 39 88
e 39 90
e 39 92
e 39 93
e 39 96
e 39 97
e 39 98
e 39 99
e 39 100
e 39 108
e 39 109
e 39 110
e 39 111
e 39 114
e 39 118
e 39 122
e 39 123
e 39 126
e 39 127
e 39 128
e 39 129
e 39 133
e 39 135
e 39 142
e 39 150
e 40 43
e 40 46
e 40 48
e 40 52
e 40 53
e 40 54
e 40 55
e 40 56
e 40 60
e 40 63
e 40 64
e 40 67
e 40 68
e 40 69
e 40 71
e 40 78
e 40 81
e 40 85
e 40 87
e 40 88
e 40 90
e 40 91
e 40 94
e 40 97
e 40 99
e 40 100
e 40 101
e 40 108
e 40 113
e 40 114
e 40 115
e 40 116
e 40 118
e 40 120
e 40 121
e 40 123
e 40 126
e 40 127
e 40 128
e 40 131
e 40 132
e 40 134
e 40 135
e 40 137
e 40 140
e 40 148
e 40 149
e 41 43
e 41 44
e 41 46
e 41 47
e 41 51
e 41 56
e 41 58
e 41 61
e 41 67
e 41 68
e 41 70
e 41 72
e 41 73
e 41 86
e 41 87
e 41 92
e 41 93
e 41 94
e 41 99
e 41 101
e 41 102
e 41 104
e 41 108
e 41 112
e 41 114
e 41 115
e 41 116
e 41 121
e 41 122
e 41 128
e 41 130
e 41 131
e 41 133
e 41 139
e 41 141
e 41 142
e 41 144
e 41 145
e 41 146
e 41 147
e 41 150
e 42 44
e 42 46
e 42 47
e 42 49
e 42 52
e 42 58
e 42 61
e 42 63
e 42 64
e 42 66
e 42 69
e 42 70
e 42 72
e 42 74
e 42 78
e 42 79
e 42 80
e 42 82
e 42 85
e 42 87
e 42 91
e 42 92
e 42 93
e 42 99
e 42 101
e 42 104
e 42 106
e 42 109
e 42 111
e 42 112
e 42 113
e 42 115
e 42 121
e 42 124
e 42 125
e 42 129
e 42 130
e 42 134
e 42 137
e 42 138
e 42 139
e 42 140
e 42 141
e 42 144
e 42 147
e 42 150
e 43 45
e 43 47
e 43 48
e 43 50
e 43 54
e 43 55
e 43 56
e 43 61
e 43 63
e 43 64
e 43 68
e 43 70
e 43 74
e 43 76
e 43 78
e 43 80
e 43 83
e 43 84
e 43 85
e 43 92
e 43 95
e 43 97
e 43 99
e 43 100
e 43 107
e 43 109
e 43 111
e 43 115
e 43 116
e 43 117
e 43 120
e 43 123
e 43 124
e 43 127
e 43 130
e 43 134
e 43 135
e 43 136
e 43 138
e 43 140
e 43 141
e 43 144
e 43 145
e 43 149
e 43 150
e 44 49
e 44 66
e 44 73
e 44 74
e 44 77
e 44 79
e 44 82
e 44 83
e 44 84
e 44 89
e 44 90
e 44 91
e 44 93
e 44 95
e 44 105
e 44 108
e 44 110
e 44 111
e 44 114
e 44 118
e 44 122
e 44 123
e 44 125
e 44 133
e 44 134
e 44 136
e 44 138
e 44 139
e 44 140
e 44 144
e 44 145
e 45 46
e 45 47
e 45 58
e 45 59
e 45 61
e 45 62
e 45 63
e 45 65
e 45 68
e 45 69
e 45 70
e 45 71
e 45 75
e 45 76
e 45 77
e 45 80
e 45 81
e 45 83
e 45 87
e 45 91
e 45 94
e 45 96
e 45 97
e 45 98
e 45 99
e 45 103
e 45 104
e 45 105
e 45 106
e 45 109
e 45 110
e 45 112
e 45 114
e 45 115
e 45 116
e 45 118
e 45 119
e 45 121
e 45 122
e 45 124
e 45 125
e 45 128
e 45 130
e 45 132
e 45 133
e 45 134
e 45 136
e 45 140
e 45 142
e 45 143
e 45 144
e 45 145
e 45 146
e 45 149
e 46 47
e 46 48
e 46 52
e 46 58
e 46 60
e 46 65
e 46 66
e 46 70
e 46 71
e 46 72
e 46 73
e 46 76
e 46 77
e 46 79
e 46 82
e 46 83
e 46 87
e 46 91
e 46 92
e 46 93
e 46 94
e 46 95
e 46 106
e 46 110
e 46 112
e 46 113
e 46 118
e 46 120
e 46 127
e 46 129
e 46 132
e 46 136
e 46 137
e 46 141
e 46 143
e 46 145
e 46 147
e 46 148
e 46 149
e 47 49
e 47 50
e 47 52
e 47 53
e 47 62
e 47 65
e 47 71
e 47 74
e 47 77
e 47 79
e 47 80
e 47 81
e 47 82
e 47 83
e 47 85
e 47 86
e 47 88
e 47 93
e 47 95
e 47 96
e 47 99
e 47 100
e 47 102
e 47 105
e 47 111
e 47 112
e 47 113
e 47 115
e 47 116
e 47 119
e 47 124
e 47 131
e 47 132
e 47 134
e 47 135
e 47 138
e 47 140
e 47 141
e 47 143
e 47 144
e 47 148
e 48 51
e 48 55
e 48 56
e 48 57
e 48 59
e 48 61
e 48 62
e 48 63
e 48 69
e 48 72
e 48 76
e 48 77
e 48 80
e 48 81
e 48 82
e 48 84
e 48 88
e 48 93
e 48 95
e 48 106
e 48 107
e 48 110
e 48 112
e 48 116
e 48 124
e 48 125
e 48 126
e 48 127
e 48 130
e 48 131
e 48 135
e 48 137
e 48 140
e 48 141
e 48 144
e 48 147
e 48 148
e 48 149
e 48 150
e 49 53
e 49 57
e 49 58
e 49 63
e 49 64
e 49 66
e 49 69
e 49 71
e 49 72
e 49 73
e 49 78
e 49 81
e 49 82
e 49 84
e 49 85
e 49 86
e 49 87
e 49 88
e 49 89
e 49 90
e 49 95
e 49 97
e 49 102
e 49 103
e 49 109
e 49 111
e 49 112
e 49 114
e 49 115
e 49 117
e 49 118
e 49 120
e 49 122
e 49 123
e 49 132
e 49 134
e 49 138
e 49 139
e 49 148
e 50 58
e 50 59
e 50 61
e 50 62
e 50 63
e 50 71
e 50 74
e 50 75
e 50 76
e 50 77
e 50 78
e 50 82
e 50 86
e 50 87
e 50 90
e 50 93
e 50 97
e 50 99
e 50 103
e 50 105
e 50 106
e 50 110
e 50 114
e 50 118
e 50 122
e 50 126
e 50 127
e 50 129
e 50 131
e 50 136
e 50 138
e 50 140
e 50 141
e 50 142
e 50 145
e 50 146
e 51 53
e 51 54
e 51 55
e 51 58
e 51 59
e 51 63
e 51 64
e 51 65
e 51 70
e 51 71
e 51 73
e 51 78
e 51 79
e 51 81
e 51 82
e 51 86
e 51 90
e 51 95
e 51 98
e 51 99
e 51 100
e 51 102
e 51 104
e 51 107
e 51 111
e 51 114
e 51 116
e 51 117
e 51 121
e 51 123
e 51 126
e 51 128
e 51 130
e 51 132
e 51 134
e 51 138
e 51 140
e 51 142
e 51 146
e 51 147
e 51 148
e 51 149
e 51 150
e 52 54
e 52 56
e 52 58
e 52 60
e 52 64
e 52 65
e 52 70
e 52 72
e 52 73
e 52 74
e 52 76
e 52 77
e 52 83
e 52 84
e 52 88
e 52 89
e 52 93
e 52 97
e 52 99
e 52 102
e 52 104
e 52 108
e 52 111
e 52 114
e 52 115
e 52 117
e 52 118
e 52 119
e 52 120
e 52 122
e 52 125
e 52 127
e 52 131
e 52 132
e 52 133
e 52 141
e 52 143
e 52 144
e 52 149
e 53 56
e 53 59
e 53 63
e 53 65
e 53 66
e 53 68
e 53 69
e 53 73
e 53 75
e 53 80
e 53 81
e 53 82
e 53 87
e 53 88
e 53 90
e 53 91
e 53 94
e 53 98
e 53 99
e 53 101
e 53 102
e 53 103
e 53 104
e 53 105
e 53 107
e 53 108
e 53 112
e 53 114
e 53 116
e 53 119
e 53 125
e 53 127
e 53 129
e 53 131
e 53 134
e 53 136
e 53 137
e 53 139
e 53 140
e 53 142
e 53 143
e 53 147
e 53 148
e 53 149
e 53 150
e 54 57
e 54 60
e 54 62
e 54 64
e 54 68
e 54 70
e 54 73
e 54 77
e 54 78
e 54 80
e 54 82
e 54 88
e 54 96
e 54 97
e 54 98
e 54 100
e 54 102
e 54 106
e 54 110
e 54 111
e 54 113
e 54 116
e 54 117
e 54 121
e 54 124
e 54 125
e 54 129
e 54 130
e 54 132
e 54 136
e 54 137
e 54 138
e 54 140
e 54 141
e 54 143
e 54 144
e 54 145
e 54 146
e 54 148
e 54 150
e 55 56
e 55 58
e 55 60
e 55 62
e 55 66
e 55 71
e 55 76
e 55 79
e 55 81
e 55 84
e 55 86
e 55 88
e 55 92
e 55 95
e 55 98
e 55 99
e 55 103
e 55 104
e 55 106
e 55 107
e 55 108
e 55 109
e 55 113
e 55 114
e 55 116
e 55 118
e 55 121
e 55 124
e 55 125
e 55 128
e 55 132
e 55 134
e 55 135
e 55 136
e 55 137
e 55 140
e 55 141
e 55 143
e 55 144
e 55 145
e 55 146
e 55 148
e 55 150
e 56 58
e 56 59
e 56 60
e 56 63
e 56 65
e 56 66
e 56 70
e 56 72
e 56 75
e 56 77
e 56 84
e 56 88
e 56 91
e 56 92
e 56 93
e 56 95
e 56 100
e 56 101
e 56 103
e 56 104
e 56 105
e 56 107
e 56 111
e 56 113
e 56 114
e 56 117
e 56 119
e 56 120
e 56 125
e 56 129
e 56 131
e 56 135
e 56 136
e 56 140
e 56 147
e 56 148
e 56 149
e 57 58
e 57 60
e 57 62
e 57 63
e 57 64
e 57 69
e 57 74
e 57 76
e 57 77
e 57 78
e 57 79
e 57 81
e 57 85
e 57 89
e 57 90
e 57 91
e 57 94
e 57 95
e 57 97
e 57 101
e 57 102
e 57 105
e 57 108
e 57 110
e 57 111
e 57 113
e 57 114
e 57 116
e 57 122
e 57 125
e 57 126
e 57 127
e 57 128
e 57 129
e 57 130
e 57 132
e 57 134
e 57 139
e 57 142
e 57 143
e 57 148
e 58 59
e 58 61
e 58 62
e 58 64
e 58 66
e 58 67
e 58 70
e 58 71
e 58 74
e 58 79
e 58 81
e 58 84
e 58 86
e 58 87
e 58 88
e 58 95
e 58 96
e 58 97
e 58 98
e 58 100
e 58 102
e 58 106
e 58 107
e 58 114
e 58 115
e 58 116
e 58 120
e 58 129
e 58 131
e 58 133
e 58 135
e 58 137
e 58 140
e 58 142
e 58 147
e 58 148
e 58 150
e 59 62
e 59 64
e 59 65
e 59 66
e 59 68
e 59 70
e 59 71
e 59 73
e 59 75
e 59 76
e 59 79
e 59 80
e 59 81
e 59 82
e 59 83
e 59 84
e 59 87
e 59 92
e 59 93
e 59 95
e 59 97
e 59 101
e 59 102
e 59 104
e 59 106
e 59 107
e 59 108
e 59 109
e 59 111
e 59 124
e 59 126
e 59 127
e 59 129
e 59 131
e 59 136
e 59 140
e 59 141
e 59 142
e 59 143
e 60 61
e 60 65
e 60 67
e 60 68
e 60 71
e 60 72
e 60 74
e 60 79
e 60 83
e 60 84
e 60 88
e 60 89
e 60 93
e 60 95
e 60 102
e 60 104
e 60 107
e 60 108
e 60 112
e 60 116
e 60 129
e 60 132
e 60 133
e 60 134
e 60 135
e 60 140
e 60 142
e 60 143
e 60 144
e 60 147
e 61 62
e 61 65
e 61 68
e 61 71
e 61 74
e 61 76
e 61 79
e 61 81
e 61 84
e 61 88
e 61 89
e 61 92
e 61 94
e 61 97
e 61 98
e 61 99
e 61 107
e 61 109
e 61 110
e 61 111
e 61 113
e 61 115
e 61 117
e 61 118
e 61 121
e 61 122
e 61 123
e 61 125
e 61 126
e 61 133
e 61 136
e 61 138
e 61 139
e 61 140
e 61 141
e 61 143
e 61 144
e 61 146
e 61 147
e 61 148
e 61 149
e 61 150
e 62 63
e 62 68
e 62 70
e 62 72
e 62 73
e 62 78
e 62 81
e 62 83
e 62 84
e 62 89
e 62 94
e 62 96
e 62 97
e 62 98
e 62 99
e 62 100
e 62 101
e 62 103
e 62 104
e 62 105
e 62 110
e 62 112
e 62 117
e 62 120
e 62 125
e 62 129
e 62 132
e 62 133
e 62 137
e 62 138
e 62 139
e 62 140
e 62 148
e 62 149
e 63 64
e 63 70
e 63 72
e 63 74
e 63 75
e 63 80
e 63 83
e 63 87
e 63 88
e 63 95
e 63 97
e 63 101
e 63 102
e 63 105
e 63 106
e 63 107
e 63 108
e 63 109
e 63 117
e 63 121
e 63 123
e 63 126
e 63 129
e 63 130
e 63 131
e 63 132
e 63 133
e 63 134
e 63 136
e 63 138
e 63 142
e 63 144
e 63 146
e 63 147
e 63 149
e 63 150
e 64 65
e 64 69
e 64 71
e 64 72
e 64 74
e 64 81
e 64 83
e 64 84
e 64 85
e 64 86
e 64 87
e 64 94
e 64 96
e 64 98
e 64 101
e 64 104
e 64 106
e 64 107
e 64 109
e 64 110
e 64 114
e 64 117
e 64 118
e 64 119
e 64 124
e 64 129
e 64 134
e 64 137
e 64 139
e 64 140
e 64 141
e 64 145
e 64 147
e 64 149
e 64 150
e 65 68
e 65 72
e 65 76
e 65 77
e 65 82
e 65 85
e 65 91
e 65 93
e 65 95
e 65 96
e 65 97
e 65 102
e 65 104
e 65 106
e 65 108
e 65 110
e 65 115
e 65 116
e 65 117
e 65 118
e 65 127
e 65 129
e 65 130
e 65 132
e 65 133
e 65 136
e 65 137
e 65 140
e 65 141
e 65 142
e 65 146
e 65 150
e 66 72
e 66 75
e 66 81
e 66 82
e 66 85
e 66 90
e 66 92
e 66 95
e 66 96
e 66 97
e 66 100
e 66 101
e 66 107
e 66 112
e 66 117
e 66 118
e 66 119
e 66 121
e 66 122
e 66 127
e 66 129
e 66 130
e 66 132
e 66 134
e 66 135
e 66 137
e 66 138
e 66 139
e 66 140
e 66 143
e 66 148
e 66 150
e 67 73
e 67 74
e 67 75
e 67 76
e 67 78
e 67 80
e 67 81
e 67 86
e 67 87
e 67 89
e 67 92
e 67 93
e 67 94
e 67 95
e 67 99
e 67 102
e 67 106
e 67 107
e 67 108
e 67 112
e 67 114
e 67 117
e 67 121
e 67 122
e 67 126
e 67 128
e 67 129
e 67 132
e 67 135
e 67 136
e 67 137
e 67 142
e 67 149
e 68 71
e 68 75
e 68 77
e 68 78
e 68 80
e 68 83
e 68 88
e 68 90
e 68 91
e 68 97
e 68 112
e 68 115
e 68 118
e 68 123
e 68 133
e 68 135
e 68 144
e 68 145
e 68 147
e 68 149
e 68 150
e 69 73
e 69 75
e 69 76
e 69 79
e 69 81
e 69 83
e 69 84
e 69 86
e 69 89
e 69 102
e 69 103
e 69 114
e 69 115
e 69 121
e 69 123
e 69 124
e 69 127
e 69 129
e 69 132
e 69 136
e 69 138
e 69 141
e 69 144
e 69 150
e 70 73
e 70 76
e 70 77
e 70 78
e 70 81
e 70 83
e 70 86
e 70 87
e 70 90
e 70 91
e 70 92
e 70 93
e 70 96
e 70 100
e 70 103
e 70 105
e 70 110
e 70 112
e 70 117
e 70 118
e 70 119
e 70 122
e 70 123
e 70 124
e 70 126
e 70 129
e 70 131
e 70 134
e 70 135
e 70 137
e 70 140
e 70 143
e 70 145
e 70 147
e 70 150
e 71 78
e 71 80
e 71 81
e 71 82
e 71 84
e 71 87
e 71 88
e 71 89
e 71 92
e 71 93
e 71 96
e 71 101
e 71 103
e 71 104
e 71 111
e 71 115
e 71 116
e 71 118
e 71 119
e 71 122
e 71 123
e 71 124
e 71 133
e 71 134
e 71 137
e 71 138
e 71 140
e 71 141
e 71 143
e 71 145
e 71 147
e 71 149
e 71 150
e 72 77
e 72 79
e 72 81
e 72 85
e 72 86
e 72 87
e 72 89
e 72 92
e 72 94
e 72 95
e 72 97
e 72 98
e 72 100
e 72 101
e 72 103
e 72 104
e 72 105
e 72 109
e 72 110
e 72 111
e 72 112
e 72 113
e 72 114
e 72 118
e 72 120
e 72 121
e 72 127
e 72 129
e 72 130
e 72 134
e 72 138
e 72 139
e 72 142
e 72 143
e 72 145
e 72 148
e 73 80
e 73 81
e 73 82
e 73 84
e 73 85
e 73 87
e 73 90
e 73 91
e 73 92
e 73 94
e 73 95
e 73 96
e 73 102
e 73 104
e 73 106
e 73 107
e 73 108
e 73 111
e 73 115
e 73 120
e 73 121
e 73 123
e 73 128
e 73 133
e 73 134
e 73 135
e 73 138
e 73 143
e 73 148
e 74 76
e 74 80
e 74 82
e 74 84
e 74 86
e 74 87
e 74 89
e 74 91
e 74 96
e 74 98
e 74 101
e 74 103
e 74 106
e 74 107
e 74 110
e 74 114
e 74 116
e 74 123
e 74 124
e 74 127
e 74 129
e 74 130
e 74 133
e 74 135
e 74 136
e 74 144
e 74 145
e 74 147
e 74 149
e 75 78
e 75 79
e 75 80
e 75 82
e 75 84
e 75 86
e 75 87
e 75 88
e 75 89
e 75 92
e 75 95
e 75 103
e 75 108
e 75 109
e 75 112
e 75 113
e 75 121
e 75 122
e 75 125
e 75 131
e 75 135
e 75 136
e 75 139
e 75 141
e 75 142
e 75 144
e 75 146
e 75 150
e 76 77
e 76 78
e 76 79
e 76 86
e 76 90
e 76 95
e 76 100
e 76 101
e 76 104
e 76 107
e 76 108
e 76 110
e 76 112
e 76 114
e 76 118
e 76 120
e 76 122
e 76 123
e 76 124
e 76 126
e 76 129
e 76 132
e 76 133
e 76 134
e 76 136
e 76 138
e 76 140
e 76 141
e 76 146
e 76 147
e 77 78
e 77 83
e 77 84
e 77 87
e 77 88
e 77 89
e 77 90
e 77 91
e 77 92
e 77 94
e 77 98
e 77 102
e 77 106
e 77 108
e 77 115
e 77 116
e 77 118
e 77 123
e 77 127
e 77 128
e 77 129
e 77 130
e 77 131
e 77 132
e 77 134
e 77 138
e 77 139
e 77 142
e 77 144
e 77 146
e 77 150
e 78 80
e 78 84
e 78 85
e 78 89
e 78 90
e 78 91
e 78 93
e 78 95
e 78 98
e 78 102
e 78 103
e 78 107
e 78 111
e 78 112
e 78 113
e 78 116
e 78 119
e 78 120
e 78 121
e 78 123
e 78 124
e 78 126
e 78 127
e 78 128
e 78 129
e 78 132
e 78 134
e 78 136
e 78 137
e 78 139
e 78 140
e 78 144
e 78 145
e 78 147
e 78 149
e 79 81
e 79 82
e 79 84
e 79 86
e 79 87
e 79 88
e 79 90
e 79 95
e 79 97
e 79 102
e 79 103
e 79 104
e 79 109
e 79 112
e 79 115
e 79 117
e 79 119
e 79 122
e 79 124
e 79 127
e 79 128
e 79 130
e 79 134
e 79 137
e 79 139
e 79 143
e 79 144
e 79 145
e 79 149
e 80 81
e 80 86
e 80 89
e 80 93
e 80 95
e 80 97
e 80 100
e 80 104
e 80 105
e 80 106
e 80 114
e 80 118
e 80 121
e 80 124
e 80 125
e 80 127
e 80 128
e 80 129
e 80 130
e 80 132
e 80 133
e 80 134
e 80 137
e 80 145
e 80 146
e 80 150
e 81 83
e 81 85
e 81 86
e 81 87
e 81 92
e 81 95
e 81 97
e 81 105
e 81 106
e 81 108
e 81 110
e 81 113
e 81 114
e 81 117
e 81 120
e 81 121
e 81 128
e 81 130
e 81 133
e 81 139
e 81 141
e 81 143
e 81 144
e 81 146
e 82 83
e 82 84
e 82 86
e 82 87
e 82 88
e 82 93
e 82 95
e 82 96
e 82 102
e 82 104
e 82 106
e 82 108
e 82 110
e 82 111
e 82 113
e 82 116
e 82 124
e 82 127
e 82 129
e 82 133
e 82 138
e 82 139
e 82 140
e 82 143
e 82 144
e 82 148
e 83 84
e 83 87
e 83 88
e 83 89
e 83 92
e 83 94
e 83 95
e 83 97
e 83 98
e 83 100
e 83 102
e 83 110
e 83 114
e 83 118
e 83 122
e 83 125
e 83 127
e 83 131
e 83 135
e 83 139
e 83 140
e 83 142
e 83 143
e 83 145
e 83 147
e 83 149
e 84 85
e 84 88
e 84 89
e 84 90
e 84 91
e 84 92
e 84 93
e 84 95
e 84 97
e 84 98
e 84 99
e 84 104
e 84 105
e 84 106
e 84 108
e 84 109
e 84 110
e 84 111
e 84 113
e 84 114
e 84 115
e 84 117
e 84 118
e 84 119
e 84 120
e 84 123
e 84 126
e 84 127
e 84 128
e 84 133
e 84 134
e 84 137
e 84 139
e 84 140
e 84 141
e 84 142
e 84 144
e 84 146
e 84 147
e 84 148
e 85 92
e 85 93
e 85 96
e 85 99
e 85 102
e 85 103
e 85 105
e 85 108
e 85 111
e 85 112
e 85 113
e 85 116
e 85 119
e 85 120
e 85 122
e 85 123
e 85 128
e 85 129
e 85 133
e 85 134
e 85 140
e 85 141
e 85 143
e 85 145
e 85 146
e 85 147
e 85 148
e 85 150
e 86 87
e 86 88
e 86 91
e 86 93
e 86 94
e 86 95
e 86 96
e 86 97
e 86 99
e 86 102
e 86 103
e 86 107
e 86 109
e 86 115
e 86 118
e 86 119
e 86 120
e 86 122
e 86 125
e 86 131
e 86 132
e 86 134
e 86 140
e 86 141
e 86 143
e 86 147
e 86 149
e 87 88
e 87 89
e 87 90
e 87 92
e 87 93
e 87 97
e 87 99
e 87 100
e 87 102
e 87 103
e 87 104
e 87 105
e 87 106
e 87 108
e 87 110
e 87 112
e 87 113
e 87 116
e 87 118
e 87 119
e 87 123
e 87 127
e 87 129
e 87 130
e 87 131
e 87 132
e 87 133
e 87 134
e 87 135
e 87 136
e 87 139
e 87 140
e 87 141
e 87 143
e 87 145
e 87 147
e 87 150
e 88 89
e 88 91
e 88 94
e 88 95
e 88 96
e 88 98
e 88 99
e 88 100
e 88 113
e 88 114
e 88 115
e 88 136
e 88 137
e 88 138
e 88 139
e 88 143
e 88 144
e 88 146
e 88 150
e 89 92
e 89 94
e 89 98
e 89 100
e 89 101
e 89 105
e 89 106
e 89 107
e 89 109
e 89 110
e 89 112
e 89 123
e 89 124
e 89 125
e 89 128
e 89 132
e 89 134
e 89 135
e 89 137
e 89 140
e 89 143
e 89 144
e 90 91
e 90 92
e 90 93
e 90 94
e 90 96
e 90 103
e 90 106
e 90 111
e 90 113
e 90 115
e 90 117
e 90 119
e 90 122
e 90 126
e 90 128
e 90 129
e 90 131
e 90 132
e 90 134
e 90 135
e 90 136
e 90 141
e 90 142
e 90 147
e 90 149
e 91 96
e 91 104
e 91 105
e 91 107
e 91 108
e 91 110
e 91 114
e 91 115
e 91 116
e 91 118
e 91 121
e 91 124
e 91 126
e 91 127
e 91 129
e 91 130
e 91 133
e 91 134
e 91 135
e 91 137
e 91 138
e 91 140
e 91 143
e 91 148
e 91 149
e 92 94
e 92 96
e 92 100
e 92 101
e 92 110
e 92 114
e 92 119
e 92 121
e 92 123
e 92 127
e 92 132
e 92 133
e 92 135
e 92 136
e 92 138
e 92 141
e 92 144
e 92 149
e 93 95
e 93 96
e 93 97
e 93 98
e 93 99
e 93 102
e 93 106
e 93 107
e 93 109
e 93 110
e 93 111
e 93 112
e 93 113
e 93 117
e 93 118
e 93 126
e 93 129
e 93 131
e 93 132
e 93 134
e 93 138
e 93 142
e 93 143
e 93 144
e 93 145
e 93 147
e 94 95
e 94 96
e 94 97
e 94 101
e 94 102
e 94 106
e 94 107
e 94 111
e 94 115
e 94 117
e 94 119
e 94 121
e 94 126
e 94 132
e 94 137
e 94 139
e 94 140
e 94 147
e 94 148
e 94 149
e 94 150
e 95 98
e 95 100
e 95 101
e 95 105
e 95 113
e 95 114
e 95 115
e 95 123
e 95 125
e 95 126
e 95 128
e 95 130
e 95 131
e 95 133
e 95 139
e 95 140
e 95 141
e 95 144
e 95 147
e 95 148
e 96 98
e 96 99
e 96 100
e 96 101
e 96 103
e 96 113
e 96 114
e 96 119
e 96 120
e 96 126
e 96 127
e 96 128
e 96 131
e 96 137
e 96 138
e 96 139
e 96 140
e 96 142
e 96 143
e 96 144
e 96 145
e 96 148
e 96 150
e 97 100
e 97 102
e 97 105
e 97 107
e 97 110
e 97 111
e 97 114
e 97 116
e 97 119
e 97 121
e 97 122
e 97 124
e 97 126
e 97 129
e 97 133
e 97 134
e 97 136
e 97 140
e 97 141
e 97 142
e 97 143
e 97 144
e 97 145
e 97 146
e 97 148
e 97 150
e 98 102
e 98 112
e 98 113
e 98 114
e 98 115
e 98 118
e 98 120
e 98 124
e 98 125
e 98 126
e 98 128
e 98 132
e 98 134
e 98 137
e 98 138
e 98 140
e 98 141
e 98 143
e 98 148
e 98 149
e 98 150
e 99 100
e 99 101
e 99 108
e 99 111
e 99 113
e 99 114
e 99 115
e 99 119
e 99 120
e 99 121
e 99 124
e 99 125
e 99 128
e 99 132
e 99 133
e 99 134
e 99 137
e 99 139
e 99 141
e 99 142
e 99 143
e 99 144
e 99 147
e 99 149
e 100 103
e 100 104
e 100 106
e 100 109
e 100 113
e 100 114
e 100 116
e 100 119
e 100 120
e 100 122
e 100 123
e 100 125
e 100 127
e 100 128
e 100 131
e 100 134
e 100 135
e 100 136
e 100 138
e 100 139
e 100 141
e 100 142
e 100 145
e 100 149
e 101 102
e 101 103
e 101 104
e 101 106
e 101 110
e 101 112
e 101 113
e 101 114
e 101 115
e 101 119
e 101 121
e 101 124
e 101 125
e 101 126
e 101 130
e 101 131
e 101 132
e 101 134
e 101 135
e 101 136
e 101 140
e 101 141
e 101 143
e 101 144
e 101 146
e 101 148
e 102 104
e 102 105
e 102 109
e 102 110
e 102 111
e 102 113
e 102 116
e 102 119
e 102 122
e 102 124
e 102 125
e 102 127
e 102 129
e 102 130
e 102 131
e 102 132
e 102 133
e 102 134
e 102 136
e 102 139
e 102 140
e 102 141
e 102 142
e 102 146
e 102 148
e 102 149
e 103 104
e 103 106
e 103 108
e 103 109
e 103 111
e 103 112
e 103 113
e 103 118
e 103 123
e 103 124
e 103 125
e 103 126
e 103 130
e 103 131
e 103 132
e 103 134
e 103 135
e 103 138
e 103 140
e 103 143
e 103 147
e 104 105
e 104 109
e 104 110
e 104 112
e 104 118
e 104 122
e 104 125
e 104 126
e 104 127
e 104 128
e 104 132
e 104 133
e 104 134
e 104 135
e 104 139
e 104 140
e 104 141
e 104 142
e 104 143
e 104 146
e 104 149
e 105 107
e 105 110
e 105 111
e 105 116
e 105 119
e 105 120
e 105 121
e 105 122
e 105 124
e 105 136
e 105 137
e 105 141
e 105 143
e 105 144
e 105 145
e 106 109
e 106 110
e 106 111
e 106 112
e 106 113
e 106 114
e 106 115
e 106 120
e 106 123
e 106 125
e 106 127
e 106 130
e 106 131
e 106 137
e 106 143
e 106 148
e 106 149
e 107 111
e 107 114
e 107 115
e 107 116
e 107 125
e 107 129
e 107 132
e 107 138
e 107 142
e 107 143
e 107 147
e 107 148
e 108 110
e 108 111
e 108 113
e 108 116
e 108 119
e 108 120
e 108 121
e 108 123
e 108 124
e 108 125
e 108 127
e 108 132
e 108 135
e 108 137
e 108 140
e 108 141
e 108 145
e 108 149
e 108 150
e 109 110
e 109 112
e 109 114
e 109 115
e 109 118
e 109 119
e 109 120
e 109 121
e 109 122
e 109 127
e 109 132
e 109 134
e 109 137
e 109 139
e 109 140
e 109 141
e 109 142
e 109 145
e 109 146
e 109 147
e 110 112
e 110 114
e 110 115
e 110 116
e 110 117
e 110 118
e 110 119
e 110 122
e 110 123
e 110 124
e 110 125
e 110 127
e 110 129
e 110 131
e 110 134
e 110 136
e 110 145
e 110 147
e 110 148
e 110 150
e 111 113
e 111 114
e 111 119
e 111 120
e 111 121
e 111 123
e 111 126
e 111 127
e 111 130
e 111 136
e 111 138
e 111 142
e 111 144
e 111 147
e 111 148
e 111 150
e 112 115
e 112 116
e 112 117
e 112 118
e 112 119
e 112 121
e 112 125
e 112 128
e 112 129
e 112 130
e 112 132
e 112 135
e 112 138
e 112 142
e 112 143
e 112 144
e 112 145
e 112 147
e 112 148
e 113 114
e 113 116
e 113 119
e 113 120
e 113 123
e 113 124
e 113 125
e 113 126
e 113 131
e 113 136
e 113 138
e 113 139
e 113 140
e 113 145
e 113 147
e 113 149
e 114 116
e 114 120
e 114 126
e 114 127
e 114 133
e 114 134
e 114 139
e 114 140
e 114 141
e 114 142
e 114 145
e 114 146
e 114 147
e 114 150
e 115 119
e 115 121
e 115 126
e 115 127
e 115 129
e 115 130
e 115 133
e 115 138
e 115 139
e 115 140
e 115 142
e 115 145
e 115 148
e 115 149
e 116 117
e 116 119
e 116 120
e 116 123
e 116 124
e 116 125
e 116 128
e 116 131
e 116 132
e 116 134
e 116 137
e 116 140
e 116 142
e 116 144
e 116 148
e 117 119
e 117 121
e 117 122
e 117 123
e 117 125
e 117 129
e 117 134
e 117 135
e 117 139
e 117 142
e 117 143
e 117 144
e 117 145
e 117 150
e 118 120
e 118 121
e 118 122
e 118 123
e 118 124
e 118 127
e 118 128
e 118 130
e 118 133
e 118 134
e 118 135
e 118 136
e 118 137
e 118 142
e 118 143
e 118 144
e 118 145
e 118 148
e 118 149
e 118 150
e 119 123
e 119 125
e 119 126
e 119 127
e 119 128
e 119 131
e 119 132
e 119 138
e 119 140
e 119 142
e 119 143
e 119 148
e 119 150
e 120 122
e 120 125
e 120 126
e 120 127
e 120 132
e 120 133
e 120 138
e 120 139
e 120 142
e 120 143
e 120 146
e 120 149
e 121 122
e 121 124
e 121 126
e 121 128
e 121 135
e 121 138
e 121 141
e 121 142
e 121 144
e 121 146
e 122 124
e 122 125
e 122 127
e 122 128
e 122 130
e 122 134
e 122 136
e 122 141
e 122 142
e 122 145
e 122 148
e 123 125
e 123 127
e 123 128
e 123 129
e 123 131
e 123 133
e 123 136
e 123 143
e 123 144
e 123 146
e 123 147
e 124 126
e 124 128
e 124 132
e 124 135
e 124 140
e 124 144
e 124 145
e 124 147
e 124 149
e 125 127
e 125 129
e 125 137
e 125 140
e 125 141
e 125 142
e 125 145
e 125 146
e 125 148
e 126 128
e 126 129
e 126 132
e 126 134
e 126 144
e 126 145
e 126 147
e 126 148
e 127 128
e 127 130
e 127 132
e 127 135
e 127 137
e 127 139
e 127 142
e 127 145
e 128 132
e 128 133
e 128 134
e 128 136
e 128 138
e 128 139
e 128 141
e 128 142
e 128 143
e 128 145
e 128 147
e 129 130
e 129 133
e 129 136
e 129 137
e 129 138
e 129 139
e 129 143
e 129 146
e 129 148
e 130 132
e 130 133
e 130 138
e 130 142
e 130 145
e 130 146
e 130 147
e 130 148
e 131 133
e 131 137
e 131 138
e 131 140
e 131 142
e 131 143
e 131 149
e 131 150
e 132 140
e 132 141
e 132 143
e 132 144
e 132 145
e 132 146
e 132 149
e 133 137
e 133 138
e 133 140
e 133 141
e 133 142
e 133 144
e 133 145
e 133 149
e 134 137
e 134 139
e 134 141
e 134 143
e 134 146
e 134 147
e 134 148
e 134 150
e 135 136
e 135 139
e 135 140
e 135 149
e 136 138
e 136 139
e 136 145
e 136 146
e 136 150
e 137 139
e 137 140
e 137 144
e 138 140
e 138 142
e 138 149
e 139 142
e 139 143
e 140 141
e 140 142
e 140 143
e 140 146
e 140 147
e 140 148
e 140 149
e 141 142
e 141 143
e 142 144
e 142 146
e 142 149
e 142 150
e 143 148
e 143 149
e 144 145
e 144 147
e 144 148
e 144 150
e 146 148
e 146 149
e 146 150
e 147 150
e 148 149
e 149 150
